1654083660
1654093620
1654163940
1654180380
1654250520
1654266060
1654595940
1654611720
1654682460
1654698600
1654769340
1654784040
1655200740
1655223960
1655287260
1655303280
1655459940
1655477460
1655719260
1655735280
1655807580
1655825400
1655891940
1655907600
1655978100
1655992680
1656064620
1656081360
